Version identifier: 22.1.0.0 | 2022-03-09 | 1a383f8ce
CPXPARAM_Read_DataCheck                          1
1 of 1 MIP starts provided solutions.
MIP start 'm1' defined initial solution with objective 34.0000.
Tried aggregator 3 times.
MIP Presolve eliminated 18866 rows and 2730 columns.
MIP Presolve modified 342 coefficients.
Aggregator did 16614 substitutions.
Reduced MIP has 2921 rows, 17308 columns, and 37542 nonzeros.
Reduced MIP has 17286 binaries, 22 generals, 0 SOSs, and 0 indicators.
Presolve time = 0.13 sec. (153.19 ticks)
Tried aggregator 1 time.
Detecting symmetries...
Reduced MIP has 2921 rows, 17308 columns, and 37542 nonzeros.
Reduced MIP has 17286 binaries, 22 generals, 0 SOSs, and 0 indicators.
Presolve time = 0.03 sec. (26.54 ticks)
Probing fixed 33 vars, tightened 0 bounds.
Probing changed sense of 4 constraints.
Probing time = 0.03 sec. (5.96 ticks)
Clique table members: 35356.
MIP emphasis: balance optimality and feasibility.
MIP search method: dynamic search.
Parallel mode: deterministic, using up to 8 threads.
Root relaxation solution time = 0.10 sec. (117.37 ticks)

        Nodes                                         Cuts/
   Node  Left     Objective  IInf  Best Integer    Best Bound    ItCnt     Gap

*     0+    0                           34.0000        0.0000           100.00%
      0     0       22.3821  2104       34.0000       22.3821     2527   34.17%
      0     0        cutoff             34.0000                   2538    0.00%
Elapsed time = 1.07 sec. (745.47 ticks, tree = 0.01 MB, solutions = 1)

Zero-half cuts applied:  27
Gomory fractional cuts applied:  12

Root node processing (before b&c):
  Real time             =    1.07 sec. (746.70 ticks)
Parallel b&c, 8 threads:
  Real time             =    0.00 sec. (0.00 ticks)
  Sync time (average)   =    0.00 sec.
  Wait time (average)   =    0.00 sec.
                          ------------
Total (root+branch&cut) =    1.07 sec. (746.70 ticks)
